webassembly/ejemplos_dzn/folder10_json_99.dzn
TERM = { '.', 's(2)', 's(5)', 's(4)', 'in_1', 'in_2', 'in_4', 'in_3', 's(6)', 's(1)', 's(0)', 's(7)', 'in_5', 's(3)', 'in_0'};
null = '.';
s = 10;
n = 11;
ndeps = 9;
max_registers_sz = 3;
NR = 0;
registers = [| |];
dependencies = [|'i32.store_0', 'i32.store8_1', |'i32.store8_1', 'i32.load8_u_2', |'i32.store8_1', 'i32.load8_s_4', |'i32.store8_1', 'i32.load8_s_6', |'i32.store8_1', 'i32.load_7', |'i32.load8_u_2', 'call[function_index(0)]_8', |'i32.load8_s_4', 'call[function_index(0)]_8', |'i32.load8_s_6', 'call[function_index(0)]_8', |'i32.load_7', 'call[function_index(0)]_8'|];
GET_ENUM = { GET1, GET2, GET3};
SET_ENUM = { SET1, SET2, SET3};
TEE_ENUM = { TEE1, TEE2, TEE3};
N = 10;
OP = { 'i32.const_0', 'call[function_index(0)]_8', 'i32.store_0', 'i32.store8_1', 'i32.load8_u_2', 'i32.const_1', 'i32.load8_s_4', 'i32.add_0', 'i32.load8_s_6', 'i32.load_7' };
in_ops = [0, 2, 2, 2, 1, 0, 1, 2, 1, 1 ];
out_ops = [1, 1, 0, 0, 1, 1, 1, 1, 1, 1 ];
in1 = ['.', 's(4)', 'in_0', 'in_2', 'in_4', '.', 's(7)', 's(1)', 's(2)', 's(3)' ];
in2 = ['.', 'in_5', 'in_1', 'in_3', '.', '.', '.', 's(0)', '.', '.' ];
in3 = ['.', '.', '.', '.', '.', '.', '.', '.', '.', '.' ];
out1 = ['s(6)', 's(5)', '.', '.', 's(0)', 's(7)', 's(1)', 's(2)', 's(3)', 's(4)' ];
out2 = ['.', '.', '.', '.', '.', '.', '.', '.', '.', '.' ];
out3 = ['.', '.', '.', '.', '.', '.', '.', '.', '.', '.' ];
comm = [false, false, false, false, false, false, false, true, false, false ];
gas = [1, 1, 1, 1, 1, 1, 1, 1, 1, 1 ];
sz = [1, 1, 1, 1, 1, 1, 1, 1, 1, 1 ];
stor = [false, true, true, true, false, false, false, false, false, false ];
lb = [ 1, 1, 1, 1, 1, 1, 1, 1, 1, 1 ];
ub = [ 10, 10, 10, 10, 10, 10, 10, 10, 10, 10 ];
startstack = [ 'in_0', 'in_1', 'in_2', 'in_3', 'in_4', 'in_5', null, null, null, null, null ];
endstack = [ 's(6)', 's(5)', null, null, null, null, null, null, null, null, null ];
